Copyright (C) 2013-2015, Filipe Brandao
Build (method = -2)
  #dp: 1416
  Step-3' Graph: 83 vertices and 826 arcs (0.00s)
  Step-4' Graph: 78 vertices and 816 arcs (0.00s)
  #V4/#V3 = 0.94
  #A4/#A3 = 0.99
Ready! (0.00s)
Optimize a model with 115 rows, 817 columns and 2299 nonzeros
Found heuristic solution: objective 37
Presolve removed 19 rows and 23 columns
Presolve time: 0.01s
Presolved: 96 rows, 794 columns, 2225 nonzeros
Variable types: 0 continuous, 794 integer (386 binary)
Optimize a model with 96 rows, 794 columns and 2225 nonzeros
Presolved: 96 rows, 794 columns, 2225 nonzeros

Root barrier log...

Ordering time: 0.00s

Barrier statistics:
 AA' NZ     : 1.265e+03
 Factor NZ  : 2.630e+03
 Factor Ops : 9.542e+04 (less than 1 second per iteration)
 Threads    : 1

                  Objective                Residual
Iter       Primal          Dual         Primal    Dual     Compl     Time
   0   7.19269238e+02 -2.68671076e+03  2.47e+03 1.26e-01  1.26e+01     0s
   1   2.21425992e+02 -9.08977686e+02  3.87e+02 4.44e-16  2.21e+00     0s
   2   7.31749192e+01 -2.70948800e+02  4.57e+01 3.33e-16  3.60e-01     0s
   3   3.64871814e+01 -3.11258369e+01  3.29e+00 2.50e-16  4.93e-02     0s
   4   2.52543189e+01 -1.33280171e-01  5.55e-01 2.22e-16  1.66e-02     0s
   5   2.18935768e+01  7.85128549e+00  2.82e-01 2.64e-16  9.05e-03     0s
   6   2.11313694e+01  1.14981112e+01  2.05e-01 1.78e-16  6.18e-03     0s
   7   1.97535605e+01  1.44085051e+01  7.42e-02 2.13e-16  3.38e-03     0s
   8   1.90584833e+01  1.76894390e+01  2.27e-02 3.12e-16  8.63e-04     0s
   9   1.88354889e+01  1.80290245e+01  1.23e-02 1.55e-16  5.08e-04     0s
  10   1.86189237e+01  1.82896522e+01  3.28e-03 1.26e-16  2.07e-04     0s
  11   1.85253342e+01  1.83731747e+01  1.03e-03 2.22e-16  9.55e-05     0s
  12   1.84829860e+01  1.84341928e+01  2.88e-04 2.22e-16  3.06e-05     0s
  13   1.84755231e+01  1.84486550e+01  1.78e-04 2.18e-16  1.69e-05     0s
  14   1.84734763e+01  1.84533721e+01  1.42e-04 1.51e-16  1.26e-05     0s
  15   1.84694541e+01  1.84580300e+01  7.86e-05 2.24e-16  7.17e-06     0s
  16   1.84640653e+01  1.84629354e+01  2.15e-06 2.51e-16  7.08e-07     0s
  17   1.84637693e+01  1.84637668e+01  2.67e-09 3.33e-16  1.53e-09     0s
  18   1.84637681e+01  1.84637681e+01  3.19e-13 2.22e-16  1.53e-12     0s

Barrier solved model in 18 iterations and 0.01 seconds
Optimal objective 1.84637681e+01


Root relaxation: objective 1.846377e+01, 94 iterations, 0.01 seconds

    Nodes    |    Current Node    |     Objective Bounds      |     Work
 Expl Unexpl |  Obj  Depth IntInf | Incumbent    BestBd   Gap | It/Node Time

     0     0   18.46377    0   36   37.00000   18.46377  50.1%     -    0s
H    0     0                      20.0000000   18.46377  7.68%     -    0s
H    0     0                      19.0000000   18.46377  2.82%     -    0s

Explored 0 nodes (254 simplex iterations) in 0.03 seconds
Thread count was 1 (of 4 available processors)

Optimal solution found (tolerance 0.00e+00)
Best objective 1.900000000000e+01, best bound 1.900000000000e+01, gap 0.0%
Preprocessing time: 0.00 seconds
Gurobi run time: 0.03 seconds
Total run time: 0.03 seconds
Objective: 19
Solution:
1 x [i=1, i=32, i=37]
1 x [i=2, i=30, i=35]
1 x [i=3, i=19]
1 x [i=4, i=28, i=36]
1 x [i=5, i=28, i=35]
2 x [i=5, i=29, i=34]
1 x [i=6, i=17]
1 x [i=7, i=16]
1 x [i=8, i=25]
1 x [i=9, i=32, i=33]
2 x [i=10, i=14]
1 x [i=11, i=26, i=26]
1 x [i=12, i=24, i=31]
1 x [i=13, i=26, i=27]
1 x [i=15, i=23]
1 x [i=18, i=20, i=25]
1 x [i=21, i=21, i=22]
